NAME : sim33.65318.tour
COMMENT : Length = 65318
COMMENT : Found by LKH [Keld Helsgaun] Fri Sep 14 13:55:33 2018
TYPE : TOUR
DIMENSION : 33
TOUR_SECTION
1
16
19
9
20
12
32
21
5
30
3
13
17
31
15
4
14
23
11
18
24
10
6
2
7
25
8
28
27
33
26
29
22
-1
EOF
